c Random generated cnf formula, satisfiable: true
p cnf 10 50
-5 3 8 0
-10 -7 9 0
4 3 -7 0
-10 -8 -3 0
10 5 -8 0
9 -3 -10 0
-5 10 -4 0
4 -9 -6 0
-5 9 7 0
3 -7 10 0
9 8 -4 0
9 10 2 0
10 4 7 0
-9 7 -2 0
-1 4 -5 0
-7 10 2 0
10 -7 4 0
10 -7 2 0
-2 -9 -5 0
8 3 -4 0
5 2 -4 0
-5 -6 -10 0
5 1 2 0
-8 -9 -1 0
10 7 8 0
4 5 8 0
-9 10 -2 0
7 8 -4 0
6 -1 7 0
9 6 -1 0
-9 5 4 0
-2 -9 -5 0
4 -2 -7 0
1 -5 7 0
2 1 -6 0
-9 6 1 0
-7 2 -1 0
-9 -3 -6 0
-2 8 -10 0
-4 3 -7 0
-3 10 -4 0
6 4 5 0
5 -10 -7 0
-8 1 -4 0
-2 7 10 0
-6 -1 -9 0
6 -9 5 0
-1 -5 4 0
-8 2 10 0
-9 -10 -8 0
